
Gurobi 9.1.2 (mac64[arm], gurobi_cl) logging started Fri Nov  5 14:56:31 2021

Academic license - for non-commercial use only - expires 2022-10-13
Using license file /Users/villena/gurobi.lic
Set parameter LogFile to value gurobi.log
